6088 2127 4 5 9 10 11 12 16 17 19 24 27 30 34 36 37 38 48 50 52 53 55 56 67 69 70 75 78 80 81 82 87 90 102 104 105 112 116 117 120 122 125 126 129 131 132 133 134 137 144 148 159 164 167 169 170 172 173 175 176 178 183 186 187 192 194 195 201 202 205 206 207 208 209 210 214 215 216 218 219 222 224 225 226 231 232 235 236 241 245 247 253 255 258 259 261 263 276 278 281 282 283 284 296 300 302 303 305 307 309 310 314 317 322 323 325 329 330 331 335 336 337 339 344 350 351 354 358 370 378 381 383 385 387 392 393 395 396 398 403 404 405 406 408 411 413 416 417 419 424 425 427 428 431 432 434 440 441 444 445 448 451 452 455 464 466 467 471 472 474 475 478 481 485 486 495 